comparadorAig_Java/examples/cnf/C17_1.cnf
c 1 v8
c 2 v6
c 5 v10
c 8 v4
c 20 C
p cnf 33 76
-3 1 0
-3 2 0
3 -1 -2 0
4 3 0
-4 -3 0
-6 4 0
-6 5 0
6 -4 -5 0
7 6 0
-7 -6 0
-9 4 0
-9 8 0
9 -4 -8 0
10 9 0
-10 -9 0
-11 7 0
-11 10 0
11 -7 -10 0
-12 2 0
-12 1 0
12 -2 -1 0
13 12 0
-13 -12 0
-14 13 0
-14 5 0
14 -13 -5 0
15 14 0
-15 -14 0
-16 13 0
-16 8 0
16 -13 -8 0
17 16 0
-17 -16 0
-18 15 0
-18 17 0
18 -15 -17 0
19 -11 0
19 -18 0
-19 11 18 0
21 20 0
-21 -20 0
22 -19 0
22 -21 0
-22 19 21 0
23 11 0
-23 -11 0
24 18 0
-24 -18 0
25 -23 0
25 -24 0
-25 23 24 0
26 -25 0
26 -21 0
-26 25 21 0
-27 22 0
-27 26 0
27 -22 -26 0
28 -23 0
28 -18 0
-28 23 18 0
29 -28 0
29 -20 0
-29 28 20 0
-30 27 0
-30 29 0
30 -27 -29 0
31 -11 0
31 -24 0
-31 11 24 0
32 -31 0
32 -20 0
-32 31 20 0
-33 30 0
-33 32 0
33 -30 -32 0
-33 0
