comparadorAig_Java/examples/cnf/C17_1.txt
((!(!(v8&v6)&v10)&!(!(v8&v6)&v4))|(!(!(v6&v8)&v10)&!(!(v6&v8)&v4))|!C)&(!(!(!(v8&v6)&v10)&!(!(v8&v6)&v4))|!(!(!(v6&v8)&v10)&!(!(v6&v8)&v4))|!C)&(!(!(!(v8&v6)&v10)&!(!(v8&v6)&v4))|(!(!(v6&v8)&v10)&!(!(v6&v8)&v4))|C)&((!(!(v8&v6)&v10)&!(!(v8&v6)&v4))|!(!(!(v6&v8)&v10)&!(!(v6&v8)&v4))|C)
